60

 0   0  10  30  50  50  60  10  14  22  22  32  32  32  41  51  51  20  20  20  28  28  36  36  54  63  30  32  32  36  36  36  50  50  50  50  41  45  45  45  45  45  50  64  51  54  54  58  64  60  60  61  61  67  67  78  78  78  78  85  
 0   0  10  30  50  50  60  10  14  22  22  32  32  32  41  51  51  20  20  20  28  28  36  36  54  63  30  32  32  36  36  36  50  50  50  50  41  45  45  45  45  45  50  64  51  54  54  58  64  60  60  61  61  67  67  78  78  78  78  85  
10  10   0  20  40  40  50  14  10  14  14  22  22  22  32  41  41  22  22  22  22  22  28  28  45  54  32  30  30  32  32  32  42  42  42  42  40  41  41  41  41  41  45  57  50  51  51  54  58  61  61  60  60  63  63  72  72  72  72  78  
30  30  20   0  20  20  30  32  22  14  14  10  10  10  14  22  22  36  36  36  22  22  20  20  28  36  42  36  36  32  32  32  32  32  32  32  45  41  41  41  41  41  40  45  54  51  51  50  51  67  67  63  63  60  60  63  63  63  63  67  
50  50  40  20   0   0  10  51  41  32  32  22  22  22  14  10  10  54  54  54  36  36  28  28  20  22  58  50  50  42  42  42  32  32  32  32  57  50  50  50  50  50  45  40  64  58  58  54  51  78  78  72  72  63  63  60  60  60  60  61  
50  50  40  20   0   0  10  51  41  32  32  22  22  22  14  10  10  54  54  54  36  36  28  28  20  22  58  50  50  42  42  42  32  32  32  32  57  50  50  50  50  50  45  40  64  58  58  54  51  78  78  72  72  63  63  60  60  60  60  61  
60  60  50  30  10  10   0  61  51  41  41  32  32  32  22  14  14  63  63  63  45  45  36  36  22  20  67  58  58  50  50  50  36  36  36  36  64  57  57  57  57  57  50  41  71  64  64  58  54  85  85  78  78  67  67  61  61  61  61  60  
10  10  14  32  51  51  61   0  10  20  20  30  30  30  40  50  50  10  10  10  22  22  32  32  51  61  20  22  22  28  28  28  45  45  45  45  32  36  36  36  36  36  42  58  41  45  45  50  57  50  50  51  51  58  58  71  71  71  71  78  
14  14  10  22  41  41  51  10   0  10  10  20  20  20  30  40  40  14  14  14  14  14  22  22  41  51  22  20  20  22  22  22  36  36  36  36  30  32  32  32  32  32  36  50  40  41  41  45  50  51  51  50  50  54  54  64  64  64  64  71  
22  22  14  14  32  32  41  20  10   0   0  10  10  10  20  30  30  22  22  22  10  10  14  14  32  41  28  22  22  20  20  20  28  28  28  28  32  30  30  30  30  30  32  42  41  40  40  41  45  54  54  51  51  51  51  58  58  58  58  64  
22  22  14  14  32  32  41  20  10   0   0  10  10  10  20  30  30  22  22  22  10  10  14  14  32  41  28  22  22  20  20  20  28  28  28  28  32  30  30  30  30  30  32  42  41  40  40  41  45  54  54  51  51  51  51  58  58  58  58  64  
32  32  22  10  22  22  32  30  20  10  10   0   0   0  10  20  20  32  32  32  14  14  10  10  22  32  36  28  28  22  22  22  22  22  22  22  36  32  32  32  32  32  30  36  45  41  41  40  41  58  58  54  54  50  50  54  54  54  54  58  
32  32  22  10  22  22  32  30  20  10  10   0   0   0  10  20  20  32  32  32  14  14  10  10  22  32  36  28  28  22  22  22  22  22  22  22  36  32  32  32  32  32  30  36  45  41  41  40  41  58  58  54  54  50  50  54  54  54  54  58  
32  32  22  10  22  22  32  30  20  10  10   0   0   0  10  20  20  32  32  32  14  14  10  10  22  32  36  28  28  22  22  22  22  22  22  22  36  32  32  32  32  32  30  36  45  41  41  40  41  58  58  54  54  50  50  54  54  54  54  58  
41  41  32  14  14  14  22  40  30  20  20  10  10  10   0  10  10  41  41  41  22  22  14  14  14  22  45  36  36  28  28  28  20  20  20  20  42  36  36  36  36  36  32  32  50  45  45  41  40  64  64  58  58  51  51  51  51  51  51  54  
51  51  41  22  10  10  14  50  40  30  30  20  20  20  10   0   0  51  51  51  32  32  22  22  10  14  54  45  45  36  36  36  22  22  22  22  50  42  42  42  42  42  36  30  57  50  50  45  41  71  71  64  64  54  54  50  50  50  50  51  
51  51  41  22  10  10  14  50  40  30  30  20  20  20  10   0   0  51  51  51  32  32  22  22  10  14  54  45  45  36  36  36  22  22  22  22  50  42  42  42  42  42  36  30  57  50  50  45  41  71  71  64  64  54  54  50  50  50  50  51  
20  20  22  36  54  54  63  10  14  22  22  32  32  32  41  51  51   0   0   0  20  20  30  30  50  60  10  14  14  22  22  22  41  41  41  41  22  28  28  28  28  28  36  54  32  36  36  42  50  40  40  41  41  50  50  64  64  64  64  72  
20  20  22  36  54  54  63  10  14  22  22  32  32  32  41  51  51   0   0   0  20  20  30  30  50  60  10  14  14  22  22  22  41  41  41  41  22  28  28  28  28  28  36  54  32  36  36  42  50  40  40  41  41  50  50  64  64  64  64  72  
20  20  22  36  54  54  63  10  14  22  22  32  32  32  41  51  51   0   0   0  20  20  30  30  50  60  10  14  14  22  22  22  41  41  41  41  22  28  28  28  28  28  36  54  32  36  36  42  50  40  40  41  41  50  50  64  64  64  64  72  
28  28  22  22  36  36  45  22  14  10  10  14  14  14  22  32  32  20  20  20   0   0  10  10  30  40  22  14  14  10  10  10  22  22  22  22  22  20  20  20  20  20  22  36  32  30  30  32  36  45  45  41  41  41  41  50  50  50  50  57  
28  28  22  22  36  36  45  22  14  10  10  14  14  14  22  32  32  20  20  20   0   0  10  10  30  40  22  14  14  10  10  10  22  22  22  22  22  20  20  20  20  20  22  36  32  30  30  32  36  45  45  41  41  41  41  50  50  50  50  57  
36  36  28  20  28  28  36  32  22  14  14  10  10  10  14  22  22  30  30  30  10  10   0   0  20  30  32  22  22  14  14  14  14  14  14  14  28  22  22  22  22  22  20  28  36  32  32  30  32  50  50  45  45  40  40  45  45  45  45  50  
36  36  28  20  28  28  36  32  22  14  14  10  10  10  14  22  22  30  30  30  10  10   0   0  20  30  32  22  22  14  14  14  14  14  14  14  28  22  22  22  22  22  20  28  36  32  32  30  32  50  50  45  45  40  40  45  45  45  45  50  
54  54  45  28  20  20  22  51  41  32  32  22  22  22  14  10  10  50  50  50  30  30  20  20   0  10  51  41  41  32  32  32  14  14  14  14  45  36  36  36  36  36  28  20  50  42  42  36  32  64  64  57  57  45  45  40  40  40  40  41  
63  63  54  36  22  22  20  61  51  41  41  32  32  32  22  14  14  60  60  60  40  40  30  30  10   0  61  51  51  41  41  41  22  22  22  22  54  45  45  45  45  45  36  22  58  50  50  42  36  72  72  64  64  50  50  41  41  41  41  40  
30  30  32  42  58  58  67  20  22  28  28  36  36  36  45  54  54  10  10  10  22  22  32  32  51  61   0  10  10  20  20  20  40  40  40  40  14  22  22  22  22  22  32  51  22  28  28  36  45  30  30  32  32  42  42  58  58  58  58  67  
32  32  30  36  50  50  58  22  20  22  22  28  28  28  36  45  45  14  14  14  14  14  22  22  41  51  10   0   0  10  10  10  30  30  30  30  10  14  14  14  14  14  22  41  20  22  22  28  36  32  32  30  30  36  36  50  50  50  50  58  
32  32  30  36  50  50  58  22  20  22  22  28  28  28  36  45  45  14  14  14  14  14  22  22  41  51  10   0   0  10  10  10  30  30  30  30  10  14  14  14  14  14  22  41  20  22  22  28  36  32  32  30  30  36  36  50  50  50  50  58  
36  36  32  32  42  42  50  28  22  20  20  22  22  22  28  36  36  22  22  22  10  10  14  14  32  41  20  10  10   0   0   0  20  20  20  20  14  10  10  10  10  10  14  32  22  20  20  22  28  36  36  32  32  32  32  42  42  42  42  50  
36  36  32  32  42  42  50  28  22  20  20  22  22  22  28  36  36  22  22  22  10  10  14  14  32  41  20  10  10   0   0   0  20  20  20  20  14  10  10  10  10  10  14  32  22  20  20  22  28  36  36  32  32  32  32  42  42  42  42  50  
36  36  32  32  42  42  50  28  22  20  20  22  22  22  28  36  36  22  22  22  10  10  14  14  32  41  20  10  10   0   0   0  20  20  20  20  14  10  10  10  10  10  14  32  22  20  20  22  28  36  36  32  32  32  32  42  42  42  42  50  
50  50  42  32  32  32  36  45  36  28  28  22  22  22  20  22  22  41  41  41  22  22  14  14  14  22  40  30  30  20  20  20   0   0   0   0  32  22  22  22  22  22  14  14  36  28  28  22  20  50  50  42  42  32  32  32  32  32  32  36  
50  50  42  32  32  32  36  45  36  28  28  22  22  22  20  22  22  41  41  41  22  22  14  14  14  22  40  30  30  20  20  20   0   0   0   0  32  22  22  22  22  22  14  14  36  28  28  22  20  50  50  42  42  32  32  32  32  32  32  36  
50  50  42  32  32  32  36  45  36  28  28  22  22  22  20  22  22  41  41  41  22  22  14  14  14  22  40  30  30  20  20  20   0   0   0   0  32  22  22  22  22  22  14  14  36  28  28  22  20  50  50  42  42  32  32  32  32  32  32  36  
50  50  42  32  32  32  36  45  36  28  28  22  22  22  20  22  22  41  41  41  22  22  14  14  14  22  40  30  30  20  20  20   0   0   0   0  32  22  22  22  22  22  14  14  36  28  28  22  20  50  50  42  42  32  32  32  32  32  32  36  
41  41  40  45  57  57  64  32  30  32  32  36  36  36  42  50  50  22  22  22  22  22  28  28  45  54  14  10  10  14  14  14  32  32  32  32   0  10  10  10  10  10  20  40  10  14  14  22  32  22  22  20  20  28  28  45  45  45  45  54  
45  45  41  41  50  50  57  36  32  30  30  32  32  32  36  42  42  28  28  28  20  20  22  22  36  45  22  14  14  10  10  10  22  22  22  22  10   0   0   0   0   0  10  30  14  10  10  14  22  28  28  22  22  22  22  36  36  36  36  45  
45  45  41  41  50  50  57  36  32  30  30  32  32  32  36  42  42  28  28  28  20  20  22  22  36  45  22  14  14  10  10  10  22  22  22  22  10   0   0   0   0   0  10  30  14  10  10  14  22  28  28  22  22  22  22  36  36  36  36  45  
45  45  41  41  50  50  57  36  32  30  30  32  32  32  36  42  42  28  28  28  20  20  22  22  36  45  22  14  14  10  10  10  22  22  22  22  10   0   0   0   0   0  10  30  14  10  10  14  22  28  28  22  22  22  22  36  36  36  36  45  
45  45  41  41  50  50  57  36  32  30  30  32  32  32  36  42  42  28  28  28  20  20  22  22  36  45  22  14  14  10  10  10  22  22  22  22  10   0   0   0   0   0  10  30  14  10  10  14  22  28  28  22  22  22  22  36  36  36  36  45  
45  45  41  41  50  50  57  36  32  30  30  32  32  32  36  42  42  28  28  28  20  20  22  22  36  45  22  14  14  10  10  10  22  22  22  22  10   0   0   0   0   0  10  30  14  10  10  14  22  28  28  22  22  22  22  36  36  36  36  45  
50  50  45  40  45  45  50  42  36  32  32  30  30  30  32  36  36  36  36  36  22  22  20  20  28  36  32  22  22  14  14  14  14  14  14  14  20  10  10  10  10  10   0  20  22  14  14  10  14  36  36  28  28  20  20  28  28  28  28  36  
64  64  57  45  40  40  41  58  50  42  42  36  36  36  32  30  30  54  54  54  36  36  28  28  20  22  51  41  41  32  32  32  14  14  14  14  40  30  30  30  30  30  20   0  41  32  32  22  14  54  54  45  45  28  28  20  20  20  20  22  
51  51  50  54  64  64  71  41  40  41  41  45  45  45  50  57  57  32  32  32  32  32  36  36  50  58  22  20  20  22  22  22  36  36  36  36  10  14  14  14  14  14  22  41   0  10  10  20  30  14  14  10  10  22  22  41  41  41  41  51  
54  54  51  51  58  58  64  45  41  40  40  41  41  41  45  50  50  36  36  36  30  30  32  32  42  50  28  22  22  20  20  20  28  28  28  28  14  10  10  10  10  10  14  32  10   0   0  10  20  22  22  14  14  14  14  32  32  32  32  41  
54  54  51  51  58  58  64  45  41  40  40  41  41  41  45  50  50  36  36  36  30  30  32  32  42  50  28  22  22  20  20  20  28  28  28  28  14  10  10  10  10  10  14  32  10   0   0  10  20  22  22  14  14  14  14  32  32  32  32  41  
58  58  54  50  54  54  58  50  45  41  41  40  40  40  41  45  45  42  42  42  32  32  30  30  36  42  36  28  28  22  22  22  22  22  22  22  22  14  14  14  14  14  10  22  20  10  10   0  10  32  32  22  22  10  10  22  22  22  22  32  
64  64  58  51  51  51  54  57  50  45  45  41  41  41  40  41  41  50  50  50  36  36  32  32  32  36  45  36  36  28  28  28  20  20  20  20  32  22  22  22  22  22  14  14  30  20  20  10   0  41  41  32  32  14  14  14  14  14  14  22  
60  60  61  67  78  78  85  50  51  54  54  58  58  58  64  71  71  40  40  40  45  45  50  50  64  72  30  32  32  36  36  36  50  50  50  50  22  28  28  28  28  28  36  54  14  22  22  32  41   0   0  10  10  30  30  50  50  50  50  60  
60  60  61  67  78  78  85  50  51  54  54  58  58  58  64  71  71  40  40  40  45  45  50  50  64  72  30  32  32  36  36  36  50  50  50  50  22  28  28  28  28  28  36  54  14  22  22  32  41   0   0  10  10  30  30  50  50  50  50  60  
61  61  60  63  72  72  78  51  50  51  51  54  54  54  58  64  64  41  41  41  41  41  45  45  57  64  32  30  30  32  32  32  42  42  42  42  20  22  22  22  22  22  28  45  10  14  14  22  32  10  10   0   0  20  20  40  40  40  40  50  
61  61  60  63  72  72  78  51  50  51  51  54  54  54  58  64  64  41  41  41  41  41  45  45  57  64  32  30  30  32  32  32  42  42  42  42  20  22  22  22  22  22  28  45  10  14  14  22  32  10  10   0   0  20  20  40  40  40  40  50  
67  67  63  60  63  63  67  58  54  51  51  50  50  50  51  54  54  50  50  50  41  41  40  40  45  50  42  36  36  32  32  32  32  32  32  32  28  22  22  22  22  22  20  28  22  14  14  10  14  30  30  20  20   0   0  20  20  20  20  30  
67  67  63  60  63  63  67  58  54  51  51  50  50  50  51  54  54  50  50  50  41  41  40  40  45  50  42  36  36  32  32  32  32  32  32  32  28  22  22  22  22  22  20  28  22  14  14  10  14  30  30  20  20   0   0  20  20  20  20  30  
78  78  72  63  60  60  61  71  64  58  58  54  54  54  51  50  50  64  64  64  50  50  45  45  40  41  58  50  50  42  42  42  32  32  32  32  45  36  36  36  36  36  28  20  41  32  32  22  14  50  50  40  40  20  20   0   0   0   0  10  
78  78  72  63  60  60  61  71  64  58  58  54  54  54  51  50  50  64  64  64  50  50  45  45  40  41  58  50  50  42  42  42  32  32  32  32  45  36  36  36  36  36  28  20  41  32  32  22  14  50  50  40  40  20  20   0   0   0   0  10  
78  78  72  63  60  60  61  71  64  58  58  54  54  54  51  50  50  64  64  64  50  50  45  45  40  41  58  50  50  42  42  42  32  32  32  32  45  36  36  36  36  36  28  20  41  32  32  22  14  50  50  40  40  20  20   0   0   0   0  10  
78  78  72  63  60  60  61  71  64  58  58  54  54  54  51  50  50  64  64  64  50  50  45  45  40  41  58  50  50  42  42  42  32  32  32  32  45  36  36  36  36  36  28  20  41  32  32  22  14  50  50  40  40  20  20   0   0   0   0  10  
85  85  78  67  61  61  60  78  71  64  64  58  58  58  54  51  51  72  72  72  57  57  50  50  41  40  67  58  58  50  50  50  36  36  36  36  54  45  45  45  45  45  36  22  51  41  41  32  22  60  60  50  50  30  30  10  10  10  10   0  

 0  33  34  24  37  35  26  27  35  34  51  34  34  34  34  35  35  33  40  41  34  41  45  39  35  44  19  26  36  33  48  47  23  38  41  28  31  40  44  36  34  32  33  22  23  32  34  34  42  39  37  26  33  20  32  33  35  21  43  43  
 0   0  34  34  36  35  34  34  34  35  34  34  24  39  41  34  27  41  34  34  29  34  39  34  41  29  34  28  40  27  41  29  47  42  45  38  34  39  40  27  41  33  43  32  33  27  34  36  39  30  37  33  34  39  34  29  29  29  34  32  
 0   0   0  34  36  27  34  34  34  34  36  43  34  36  34  34  34  34  34  23  34  34  34  34  34  34  43  34  34  34  32  34  32  34  36  34  34  34  43  34  34  34  34  34  34  32  34  34  32  36  34  34  34  36  36  34  32  36  32  43  
 0   0   0   0  32  34  26  34  33  35  51  34  34  34  34  33  30  35  28  31  34  40  43  36  26  40  30  26  33  35  30  34  35  34  43  40  45  28  42  32  34  27  34  36  34  33  36  34  42  33  49  24  35  30  36  34  33  29  38  43  
 0   0   0   0   0  38  34  30  38  40  32  34  31  32  30  34  34  31  32  31  37  35  40  36  31  32  35  29  33  33  36  34  39  33  33  34  36  39  38  32  34  37  34  33  28  34  34  38  36  31  35  38  31  28  33  33  36  35  36  37  
 0   0   0   0   0   0  34  44  36  29  26  37  34  32  38  34  34  37  34  29  31  31  31  34  30  34  48  38  33  40  36  40  32  27  38  39  28  27  37  34  34  35  44  37  39  36  39  30  36  31  34  34  34  36  30  39  36  32  36  43  
 0   0   0   0   0   0   0  34  34  34  42  26  34  47  43  34  34  31  34  34  30  42  26  42  25  38  34  26  39  34  34  29  32  34  39  28  34  39  47  41  43  35  34  29  26  34  26  30  36  39  34  33  34  29  34  40  29  37  43  47  
 0   0   0   0   0   0   0   0  32  38  40  40  34  34  30  34  37  34  34  31  34  37  35  51  44  34  35  30  34  32  44  35  28  37  28  34  30  38  40  34  34  44  30  24  20  37  34  38  34  31  34  34  34  30  36  30  34  34  37  34  
 0   0   0   0   0   0   0   0   0  31  35  40  34  34  38  33  34  35  34  33  34  34  25  34  34  34  29  33  33  27  34  28  31  40  29  34  40  30  41  39  34  34  33  34  38  35  35  35  34  33  34  33  35  39  44  38  33  34  39  34  
 0   0   0   0   0   0   0   0   0   0  34  34  37  34  38  39  34  33  34  34  34  38  31  34  38  30  30  38  34  38  38  34  29  33  33  37  34  30  30  34  34  35  36  34  42  33  33  30  34  34  34  32  32  37  35  36  35  31  30  31  
 0   0   0   0   0   0   0   0   0   0   0  28  34  32  34  34  34  34  34  36  34  26  20  34  42  26  53  37  34  40  36  40  36  28  30  34  19  34  19  39  34  43  29  34  34  36  33  39  28  32  25  43  34  41  26  34  36  41  33  25  
 0   0   0   0   0   0   0   0   0   0   0   0  29  47  39  34  34  26  34  48  34  29  26  47  34  34  39  34  29  40  34  40  26  28  32  34  28  34  27  42  42  34  39  34  26  34  34  34  39  29  29  34  34  39  28  34  34  42  34  33  
 0   0   0   0   0   0   0   0   0   0   0   0   0  44  39  34  34  39  34  39  29  29  34  39  31  29  34  34  34  31  34  29  39  34  39  36  34  39  42  34  34  34  52  39  31  34  34  29  44  24  29  37  31  44  37  32  29  32  34  42  
 0   0   0   0   0   0   0   0   0   0   0   0   0   0  24  34  34  37  34  34  39  36  42  21  34  39  26  34  37  34  36  39  42  34  35  34  34  29  21  26  26  34  24  34  45  36  34  39  31  37  39  31  34  27  32  34  41  29  36  21  
 0   0   0   0   0   0   0   0   0   0   0   0   0   0   0  34  41  29  34  29  40  39  31  29  26  40  38  37  34  41  27  39  27  27  22  38  34  33  29  40  28  35  25  46  30  41  34  37  33  34  39  33  34  30  30  26  39  39  35  36  
 0   0   0   0   0   0   0   0   0   0   0   0   0   0   0   0  34  35  34  33  34  30  34  34  34  38  34  34  33  33  30  34  35  34  35  34  34  34  35  34  34  34  34  34  34  35  35  34  34  33  34  33  39  35  34  34  33  34  38  34  
 0   0   0   0   0   0   0   0   0   0   0   0   0   0   0   0   0  34  30  37  34  31  44  31  41  34  35  27  34  27  37  37  41  44  41  38  34  30  30  27  41  34  34  27  34  24  34  41  34  37  38  34  34  38  34  34  34  38  27  27  
 0   0   0   0   0   0   0   0   0   0   0   0   0   0   0   0   0   0  34  32  42  37  26  42  34  39  39  34  30  35  34  39  20  34  20  34  34  32  36  42  42  34  29  31  26  33  33  39  34  35  32  35  33  33  34  34  40  47  34  37  
 0   0   0   0   0   0   0   0   0   0   0   0   0   0   0   0   0   0   0  32  34  32  34  36  34  32  38  34  34  36  30  34  34  34  34  40  36  28  32  32  34  36  34  36  34  32  34  34  34  34  40  34  34  38  36  34  34  38  30  34  
 0   0   0   0   0   0   0   0   0   0   0   0   0   0   0   0   0   0   0   0  37  46  31  34  36  32  43  35  34  35  32  31  31  30  36  35  36  35  47  32  34  37  30  33  32  34  35  34  27  36  42  35  35  32  38  36  31  36  35  43  
 0   0   0   0   0   0   0   0   0   0   0   0   0   0   0   0   0   0   0   0   0  31  34  34  35  28  37  34  39  34  34  29  38  34  39  35  34  36  39  35  33  33  39  37  34  34  34  28  35  34  34  35  34  34  34  33  29  29  33  39  
 0   0   0   0   0   0   0   0   0   0   0   0   0   0   0   0   0   0   0   0   0   0  37  38  42  28  42  42  32  36  30  37  37  37  26  36  36  29  36  32  34  36  39  39  37  29  42  34  31  32  31  31  38  39  36  34  34  34  27  34  
 0   0   0   0   0   0   0   0   0   0   0   0   0   0   0   0   0   0   0   0   0   0   0  45  27  34  46  41  35  41  27  31  16  25  18  33  25  30  34  54  35  42  32  41  29  44  25  28  34  32  26  42  34  47  38  38  34  51  42  40  
 0   0   0   0   0   0   0   0   0   0   0   0   0   0   0   0   0   0   0   0   0   0   0   0  24  36  23  34  39  28  24  27  52  37  45  32  42  36  24  28  26  22  29  42  52  33  34  34  29  42  37  34  34  29  32  34  31  26  31  26  
 0   0   0   0   0   0   0   0   0   0   0   0   0   0   0   0   0   0   0   0   0   0   0   0   0  43  18  32  35  38  25  16  29  28  44  36  44  42  36  40  20  32  41  51  40  41  31  28  33  35  33  37  31  26  37  36  34  37  51  52  
 0   0   0   0   0   0   0   0   0   0   0   0   0   0   0   0   0   0   0   0   0   0   0   0   0   0  42  42  39  36  38  29  38  34  31  37  36  37  41  33  33  35  39  36  34  32  42  28  27  34  36  35  30  34  36  33  29  29  21  39  
 0   0   0   0   0   0   0   0   0   0   0   0   0   0   0   0   0   0   0   0   0   0   0   0   0   0   0  35  34  28  46  23  30  43  52  30  40  45  27  21  18  42  43  31  46  31  26  25  34  37  30  34  34  26  44  38  34  22  46  25  
 0   0   0   0   0   0   0   0   0   0   0   0   0   0   0   0   0   0   0   0   0   0   0   0   0   0   0   0  34  27  41  34  44  41  50  35  34  38  33  32  41  34  25  27  30  27  26  50  42  34  33  35  34  30  30  29  34  34  47  27  
 0   0   0   0   0   0   0   0   0   0   0   0   0   0   0   0   0   0   0   0   0   0   0   0   0   0   0   0   0  33  34  39  27  33  30  34  34  29  30  34  34  35  35  34  32  35  35  39  39  27  29  36  35  40  34  35  38  39  34  29  
 0   0   0   0   0   0   0   0   0   0   0   0   0   0   0   0   0   0   0   0   0   0   0   0   0   0   0   0   0   0  41  28  42  47  36  29  38  36  42  29  41  32  37  25  31  30  35  41  34  33  32  36  32  35  41  37  33  37  34  30  
 0   0   0   0   0   0   0   0   0   0   0   0   0   0   0   0   0   0   0   0   0   0   0   0   0   0   0   0   0   0   0  32  43  27  21  38  44  22  30  41  35  16  34  51  44  39  34  27  40  36  38  34  38  48  36  34  32  40  24  33  
 0   0   0   0   0   0   0   0   0   0   0   0   0   0   0   0   0   0   0   0   0   0   0   0   0   0   0   0   0   0   0   0  41  37  41  34  50  47  55  34  26  32  39  44  44  37  34  29  26  31  34  34  34  26  40  34  39  29  45  47  
 0   0   0   0   0   0   0   0   0   0   0   0   0   0   0   0   0   0   0   0   0   0   0   0   0   0   0   0   0   0   0   0   0  27  24  36  24  33  35  50  26  51  33  31  17  38  33  27  25  37  33  40  33  31  40  36  38  49  39  52  
 0   0   0   0   0   0   0   0   0   0   0   0   0   0   0   0   0   0   0   0   0   0   0   0   0   0   0   0   0   0   0   0   0   0  33  34  28  34  28  41  27  35  35  41  35  44  34  27  34  30  34  34  34  34  28  35  34  34  37  41  
 0   0   0   0   0   0   0   0   0   0   0   0   0   0   0   0   0   0   0   0   0   0   0   0   0   0   0   0   0   0   0   0   0   0   0  33  40  21  43  49  43  26  29  41  26  42  41  32  36  33  35  34  33  39  38  35  45  45  20  36  
 0   0   0   0   0   0   0   0   0   0   0   0   0   0   0   0   0   0   0   0   0   0   0   0   0   0   0   0   0   0   0   0   0   0   0   0  32  40  40  35  35  33  27  27  31  36  29  35  28  39  29  35  31  25  35  44  34  33  39  37  
 0   0   0   0   0   0   0   0   0   0   0   0   0   0   0   0   0   0   0   0   0   0   0   0   0   0   0   0   0   0   0   0   0   0   0   0   0  36  17  36  34  51  34  22  24  36  25  34  34  34  23  43  34  43  26  34  34  43  34  25  
 0   0   0   0   0   0   0   0   0   0   0   0   0   0   0   0   0   0   0   0   0   0   0   0   0   0   0   0   0   0   0   0   0   0   0   0   0   0  27  32  42  28  33  39  38  32  34  35  42  34  40  34  34  50  40  38  39  43  22  21  
 0   0   0   0   0   0   0   0   0   0   0   0   0   0   0   0   0   0   0   0   0   0   0   0   0   0   0   0   0   0   0   0   0   0   0   0   0   0   0  28  26  41  26  32  45  35  24  39  34  35  26  42  36  46  23  30  30  41  30   0  
 0   0   0   0   0   0   0   0   0   0   0   0   0   0   0   0   0   0   0   0   0   0   0   0   0   0   0   0   0   0   0   0   0   0   0   0   0   0   0   0  34  37  39  29  42  25  34  37  33  34  36  33  34  34  36  35  34  26  30  19  
 0   0   0   0   0   0   0   0   0   0   0   0   0   0   0   0   0   0   0   0   0   0   0   0   0   0   0   0   0   0   0   0   0   0   0   0   0   0   0   0   0  41  34  41  42  41  34  26  27  34  34  35  34  26  34  33  34  26  41  41  
 0   0   0   0   0   0   0   0   0   0   0   0   0   0   0   0   0   0   0   0   0   0   0   0   0   0   0   0   0   0   0   0   0   0   0   0   0   0   0   0   0   0  33  42  43  36  43  33  43  35  41  26  34  33  32  32  34  25  25  35  
 0   0   0   0   0   0   0   0   0   0   0   0   0   0   0   0   0   0   0   0   0   0   0   0   0   0   0   0   0   0   0   0   0   0   0   0   0   0   0   0   0   0   0  29  32  34  29  48  24  45  39  31  37  20  27  31  39  36  39  26  
 0   0   0   0   0   0   0   0   0   0   0   0   0   0   0   0   0   0   0   0   0   0   0   0   0   0   0   0   0   0   0   0   0   0   0   0   0   0   0   0   0   0   0   0  24  29  34  41  29  39  32  34  34  29  32  39  34  34  34  27  
 0   0   0   0   0   0   0   0   0   0   0   0   0   0   0   0   0   0   0   0   0   0   0   0   0   0   0   0   0   0   0   0   0   0   0   0   0   0   0   0   0   0   0   0   0  34  34  38  34  35  34  40  31  30  33  32  34  45  34  45  
 0   0   0   0   0   0   0   0   0   0   0   0   0   0   0   0   0   0   0   0   0   0   0   0   0   0   0   0   0   0   0   0   0   0   0   0   0   0   0   0   0   0   0   0   0   0  33  41  32  40  36  35  33  35  38  34  33  36  29  27  
 0   0   0   0   0   0   0   0   0   0   0   0   0   0   0   0   0   0   0   0   0   0   0   0   0   0   0   0   0   0   0   0   0   0   0   0   0   0   0   0   0   0   0   0   0   0   0  34  42  35  25  44  33  42  34  34  35  43  42  25  
 0   0   0   0   0   0   0   0   0   0   0   0   0   0   0   0   0   0   0   0   0   0   0   0   0   0   0   0   0   0   0   0   0   0   0   0   0   0   0   0   0   0   0   0   0   0   0   0  35  34  34  35  34  38  38  37  29  29  28  46  
 0   0   0   0   0   0   0   0   0   0   0   0   0   0   0   0   0   0   0   0   0   0   0   0   0   0   0   0   0   0   0   0   0   0   0   0   0   0   0   0   0   0   0   0   0   0   0   0   0  46  39  33  34  18  36  40  32  36  33  42  
 0   0   0   0   0   0   0   0   0   0   0   0   0   0   0   0   0   0   0   0   0   0   0   0   0   0   0   0   0   0   0   0   0   0   0   0   0   0   0   0   0   0   0   0   0   0   0   0   0   0  29  33  35  43  32  30  35  32  39  34  
 0   0   0   0   0   0   0   0   0   0   0   0   0   0   0   0   0   0   0   0   0   0   0   0   0   0   0   0   0   0   0   0   0   0   0   0   0   0   0   0   0   0   0   0   0   0   0   0   0   0   0  44  34  44  32  33  34  39  38  25  
 0   0   0   0   0   0   0   0   0   0   0   0   0   0   0   0   0   0   0   0   0   0   0   0   0   0   0   0   0   0   0   0   0   0   0   0   0   0   0   0   0   0   0   0   0   0   0   0   0   0   0   0  38  26  31  33  33  22  35  40  
 0   0   0   0   0   0   0   0   0   0   0   0   0   0   0   0   0   0   0   0   0   0   0   0   0   0   0   0   0   0   0   0   0   0   0   0   0   0   0   0   0   0   0   0   0   0   0   0   0   0   0   0   0  33  37  37  35  37  30  37  
 0   0   0   0   0   0   0   0   0   0   0   0   0   0   0   0   0   0   0   0   0   0   0   0   0   0   0   0   0   0   0   0   0   0   0   0   0   0   0   0   0   0   0   0   0   0   0   0   0   0   0   0   0   0  28  35  37  19  48  51  
 0   0   0   0   0   0   0   0   0   0   0   0   0   0   0   0   0   0   0   0   0   0   0   0   0   0   0   0   0   0   0   0   0   0   0   0   0   0   0   0   0   0   0   0   0   0   0   0   0   0   0   0   0   0   0  27  36  29  36  31  
 0   0   0   0   0   0   0   0   0   0   0   0   0   0   0   0   0   0   0   0   0   0   0   0   0   0   0   0   0   0   0   0   0   0   0   0   0   0   0   0   0   0   0   0   0   0   0   0   0   0   0   0   0   0   0   0  34  31  33  31  
 0   0   0   0   0   0   0   0   0   0   0   0   0   0   0   0   0   0   0   0   0   0   0   0   0   0   0   0   0   0   0   0   0   0   0   0   0   0   0   0   0   0   0   0   0   0   0   0   0   0   0   0   0   0   0   0   0  31  32  39  
 0   0   0   0   0   0   0   0   0   0   0   0   0   0   0   0   0   0   0   0   0   0   0   0   0   0   0   0   0   0   0   0   0   0   0   0   0   0   0   0   0   0   0   0   0   0   0   0   0   0   0   0   0   0   0   0   0   0  40  37  
 0   0   0   0   0   0   0   0   0   0   0   0   0   0   0   0   0   0   0   0   0   0   0   0   0   0   0   0   0   0   0   0   0   0   0   0   0   0   0   0   0   0   0   0   0   0   0   0   0   0   0   0   0   0   0   0   0   0   0  26  
 0   0   0   0   0   0   0   0   0   0   0   0   0   0   0   0   0   0   0   0   0   0   0   0   0   0   0   0   0   0   0   0   0   0   0   0   0   0   0   0   0   0   0   0   0   0   0   0   0   0   0   0   0   0   0   0   0   0   0   0  
